100
590 63 236 531 590 63 354 567 504 590 630 189 252 504 59 252 630 354 472 590 590 472 354 236 531 252 118 378 126 295 236 236 189 413 315 378 189 378 413 63 189 63 295 63 567 413 126 236 531 590 531 118 531 378 59 236 531 236 531 504 441 126 413 295 118 63 126 472 630 378 567 189 189 378 252 189 118 378 630 295 378 472 472 567 354 413 441 630 504 236 590 252 630 126 189 441 177 236 118 177 
1590 163 636 1431 1590 163 954 1467 1304 1590 1630 489 652 1304 159 652 1630 954 1272 1590 1590 1272 954 636 1431 652 318 978 326 795 636 636 489 1113 815 978 489 978 1113 163 489 163 795 163 1467 1113 326 636 1431 1590 1431 318 1431 978 159 636 1431 636 1431 1304 1141 326 1113 795 318 163 326 1272 1630 978 1467 489 489 978 652 489 318 978 1630 795 978 1272 1272 1467 954 1113 1141 1630 1304 636 1590 652 1630 326 489 1141 477 636 318 477 
17108
